22	3

10	10	10	

0	0	0	0	3	2	3	4	
7	3	5	2	2	5	6	
2	5	4	3	2	5	6	
1	5	2	2	4	5	6	7	8	
1	4	1	4	2	9	10	
5	5	5	4	2	9	12	
2	3	5	2	2	9	11	
3	2	4	4	2	10	11	
4	3	2	2	2	13	14	
2	3	2	4	1	15	
5	3	3	2	2	13	16	
8	4	1	4	1	13	
2	1	4	4	1	17	
1	2	2	2	2	17	19	
2	5	5	4	1	18	
5	1	5	4	1	18	
5	4	5	4	2	20	21	
3	3	2	3	1	20	
2	5	3	3	1	20	
1	2	4	6	1	22	
1	1	6	2	1	22	
0	0	0	0	0	
